50
39
39
39
-19 -16 -5 -6 -39 -29 -36 -36 -22 -6 -37 -16 -5 -21 -11 -15 -31 -24 -30 -37 -14 -18 -4 -4 -20 -9 -32 -18 -8 -34 -31 -22 -7 -29 -13 -13 -35 -25 -4 -14 -36 -36 -22 -23 -32 -34 -12 -8 -6 -8
36 14 3 33 32 14 20 16 10 8 20 17 26 18 24 39 21 37 5 30 19 1 36 33 9 23 6 36 32 2 6 24 24 33 12 20 32 20 27 34 10 24 33 10 16 27 22 22 23 25
35 19 18 36 23 8 13 11 37 39 33 4 2 26 35 36 26 1 26 7 11 2 37 22 27 14 7 13 18 1 29 11 1 12 20 30 29 6 35 8 31 29 31 14 30 33 4 26 4 16
12 27 3 2 25 9 6 5 34 21 38 28 6 35 5 39 21 10 5 33 29 5 28 10 15 16 22 20 14 35 16 21 22 24 26 16 16 29 1 38 28 16 1 38 22 5 39 36 27 6
